SCIP Status        : solving was interrupted [time limit reached]
Total Time         :    3600.01
  solving          :    3600.00
  presolving       :       0.50 (included in solving)
  reading          :       0.01
  copying          :       1.35 (39 #copies) (minimal 0.00, maximal 0.10, average 0.03)
Original Problem   :
  Problem name     : bbbenchmark/pw05_100.2.cut
  Variables        : 101 (100 binary, 0 integer, 0 implicit integer, 1 continuous)
  Constraints      : 1 initial, 1 maximal
  Objective        : minimize, 1 non-zeros (abs.min = 1, abs.max = 1)
Presolved Problem  :
  Problem name     : t_bbbenchmark/pw05_100.2.cut
  Variables        : 1915 (100 binary, 0 integer, 1801 implicit integer, 14 continuous)
  Constraints      : 1841 initial, 7281 maximal
  Objective        : minimize, 1 non-zeros (abs.min = 1, abs.max = 1)
  Nonzeros         : 8731 constraint, 202 clique table
Presolvers         :   ExecTime  SetupTime  Calls  FixedVars   AggrVars   ChgTypes  ChgBounds   AddHoles    DelCons    AddCons   ChgSides   ChgCoefs
  boundshift       :       0.00       0.00      0          0          0          0          0          0          0          0          0          0
  convertinttobin  :       0.00       0.00      0          0          0          0          0          0          0          0          0          0
  domcol           :       0.00       0.00      1          0          0          0          0          0          0          0          0          0
  dualagg          :       0.00       0.00      0          0          0          0          0          0          0          0          0          0
  dualcomp         :       0.00       0.00      1          0          0          0          0          0          0          0          0          0
  dualinfer        :       0.00       0.00      0          0          0          0          0          0          0          0          0          0
  dualsparsify     :       0.00       0.00      1          0          0          0          0          0          0          0          0          0
  gateextraction   :       0.00       0.00      0          0          0          0          0          0          0          0          0          0
  implics          :       0.00       0.00      2          0          0          0          0          0          0          0          0          0
  inttobinary      :       0.00       0.00      0          0          0          0          0          0          0          0          0          0
  qpkktref         :       0.00       0.00      0          0          0          0          0          0          0          0          0          0
  redvub           :       0.00       0.00      0          0          0          0          0          0          0          0          0          0
  sparsify         :       0.00       0.00      1          0          0          0          0          0          0          0          0          0
  stuffing         :       0.00       0.00      0          0          0          0          0          0          0          0          0          0
  trivial          :       0.00       0.00      4          0          0          0          0          0          0          0          0          0
  tworowbnd        :       0.00       0.00      0          0          0          0          0          0          0          0          0          0
  dualfix          :       0.00       0.00      4          0          0          0          0          0          0          0          0          0
  genvbounds       :       0.00       0.00      0          0          0          0          0          0          0          0          0          0
  probing          :       0.33       0.00      1          0          0          0          0          0          0          0          0          0
  pseudoobj        :       0.00       0.00      1          0          0          0          1          0          0          0          0          0
  symmetry         :       0.00       0.00      0          0          0          0          0          0          0          0          0          0
  vbounds          :       0.00       0.00      1          0          0          0          0          0          0          0          0          0
  varbound         :       0.00       0.00      2          0          0          0          0          0          0          0          0          0
  and              :       0.00       0.00      2          0          0          0          0          0          0          0          0          0
  linear           :       0.01       0.00      2          0          0          0          0          0          0          0          0          0
  logicor          :       0.00       0.00      0          0          0          0          0          0          0          0          0          0
  bounddisjunction :       0.00       0.00      0          0          0          0          0          0          0          0          0          0
  nonlinear        :       0.14       0.01      5          0          0          0          1          0          0       1840          0          0
  benders          :       0.00       0.00      0          0          0          0          0          0          0          0          0          0
  components       :       0.01       0.00      1          0          0          0          0          0          0          0          0          0
  root node        :          -          -      -          0          -          -         15          -          -          -          -          -
Constraints        :     Number  MaxNumber  #Separate #Propagate    #EnfoLP    #EnfoRelax  #EnfoPS    #Check   #ResProp    Cutoffs    DomReds       Cuts    Applied      Conss   Children
  benderslp        :          0          0          0          0      57479          0          0       6184          0          0          0          0          0          0          0
  integral         :          0          0          0          0      57479          0          0       6184          0          0        566          0          0        419     114284
  varbound         :         13         13        156     384931          0          0          0         95          0          0      41563          0          0          0          0
  and              :       1801       1801      75243     439593          2          0          0         95     326375          2     486188      14238      12438          0          0
  linear           :         27+        29        156     439637          2          0          0         93        172          1     160878          0          0          0          0
  logicor          :          0+      5396          0      74120          0          0          0          0         55        116         32          0          0          0          0
  bounddisjunction :          0+       194          0      25232          0          0          0          0          0          8          3          0          0          0          0
  benders          :          0          0          0          0          2          0          0         61          0          0          0          0          0          0          0
  countsols        :          0          0          0          0          2          0          0         61          0          0          0          0          0          0          0
  components       :          0          0          0          0          0          0          0          0          0          0          0          0          0          0          0
Constraint Timings :  TotalTime  SetupTime   Separate  Propagate     EnfoLP     EnfoPS     EnfoRelax   Check    ResProp    SB-Prop
  benderslp        :       0.05       0.00       0.00       0.00       0.04       0.00       0.00       0.01       0.00       0.00
  integral         :      53.31       0.00       0.00       0.00      53.28       0.00       0.00       0.03       0.00       0.00
  varbound         :       0.60       0.00       0.00       0.60       0.00       0.00       0.00       0.00       0.00       0.00
  and              :      66.75       0.00      46.20      19.78       0.00       0.00       0.00       0.02       0.24       0.51
  linear           :       2.46       0.00       0.09       2.30       0.00       0.00       0.00       0.01       0.00       0.06
  logicor          :       7.28       0.00       0.00       7.27       0.00       0.00       0.00       0.00       0.00       0.01
  bounddisjunction :       0.27       0.00       0.00       0.27       0.00       0.00       0.00       0.00       0.00       0.00
  benders          :       0.00       0.00       0.00       0.00       0.00       0.00       0.00       0.00       0.00       0.00
  countsols        :       0.00       0.00       0.00       0.00       0.00       0.00       0.00       0.00       0.00       0.00
  components       :       0.09       0.00       0.00       0.09       0.00       0.00       0.00       0.00       0.00       0.00
Propagators        : #Propagate   #ResProp    Cutoffs    DomReds
  dualfix          :          4          0          0          0
  genvbounds       :          0          0          0          0
  nlobbt           :          0          0          0          0
  obbt             :          0          0          0          0
  probing          :          0          0          0          0
  pseudoobj        :     262186          0          0         56
  redcost          :     141944          0          0      49698
  rootredcost      :         12          0          0          0
  symmetry         :          0          0          0          0
  vbounds          :      70700          0          0          0
Propagator Timings :  TotalTime  SetupTime   Presolve  Propagate    ResProp    SB-Prop
  dualfix          :       0.00       0.00       0.00       0.00       0.00       0.00
  genvbounds       :       0.36       0.00       0.00       0.36       0.00       0.00
  nlobbt           :       0.00       0.00       0.00       0.00       0.00       0.00
  obbt             :       0.01       0.00       0.00       0.01       0.00       0.00
  probing          :       0.33       0.00       0.33       0.00       0.00       0.00
  pseudoobj        :       0.68       0.00       0.00       0.68       0.00       0.00
  redcost          :       9.63       0.00       0.00       9.63       0.00       0.00
  rootredcost      :       0.41       0.00       0.00       0.41       0.00       0.00
  symmetry         :       0.29       0.00       0.00       0.28       0.00       0.01
  vbounds          :       0.38       0.00       0.00       0.37       0.00       0.01
Conflict Analysis  :       Time      Calls    Success    DomReds  Conflicts   Literals    Reconvs ReconvLits   Dualrays   Nonzeros   LP Iters   (pool size: [10000,10000])
  propagation      :       0.00        126         87          -        109       61.6          0        0.0          -          -          -
  infeasible LP    :       0.02          7          7          -        286      127.9          0        0.0         12      160.0          0
  bound exceed. LP :      14.71       3592       3281          -      90997      110.8          0        0.0          0        0.0      35556
  strong branching :       0.00          0          0          -          0        0.0          0        0.0          -          -          0
  pseudo solution  :       0.00          0          0          -          0        0.0          0        0.0          -          -          -
  applied globally :       0.45          -          -          0      18784      129.0          -          -         12          -          -
  applied locally  :          -          -          -          0          0        0.0          -          -          0          -          -
Separators         :   ExecTime  SetupTime      Calls  RootCalls    Cutoffs    DomReds  FoundCuts ViaPoolAdd  DirectAdd    Applied ViaPoolApp  DirectApp      Conss
  cut pool         :       7.23          -      24132        185          -          -      47369    1590029          -          -          -          -          -    (maximal pool size:       4282)
  aggregation      :     379.36       0.00      10062        156          0          0       1608        832          0        286        286          0          0
  > cmir           :          -          -          -          -          -          -          -        830          0        284        284          0          -
  > flowcover      :          -          -          -          -          -          -          -          2          0          2          2          0          -
  > knapsackcover  :          -          -          -          -          -          -          -          0          0          0          0          0          -
  cgmip            :       0.00       0.00          0          0          0          0          0          0          0          0          0          0          0
  clique           :       0.00       0.00        156        156          0          0          0          0          0          0          0          0          0
  closecuts        :       0.00       0.00          0          0          0          0          0          0          0          0          0          0          0
  convexproj       :       0.00       0.00          0          0          0          0          0          0          0          0          0          0          0
  disjunctive      :       0.00       0.00          0          0          0          0          0          0          0          0          0          0          0
  eccuts           :       0.00       0.00          0          0          0          0          0          0          0          0          0          0          0
  gauge            :       0.00       0.00          0          0          0          0          0          0          0          0          0          0          0
  gomory           :       0.00       0.00          0          0          0          0          0          0          0          0          0          0          0
  > gomorymi       :          -          -          -          -          -          -          -          0          0          0          0          0          -
  > strongcg       :          -          -          -          -          -          -          -          0          0          0          0          0          -
  impliedbounds    :       0.75       0.00      10062        156          0          0         96         15          0         10         10          0          0
  interlattice     :       0.74       0.00        127        127          0          0        127          0        127        120          0        120          0
  interminor       :       0.00       0.00          0          0          0          0          0          0          0          0          0          0          0
  intersub         :       0.22       0.00         11         11          0          0          8          0          8          8          0          8          0
  intobj           :       0.00       0.00          0          0          0          0          0          0          0          0          0          0          0
  mcf              :       0.00       0.00          1          1          0          0          0          0          0          0          0          0          0
  minor            :       0.02       0.00          0          0          0          0          0          0          0          0          0          0          0
  mixing           :       0.06       0.00      10062        156          0          0          0          0          0          0          0          0          0
  oddcycle         :       0.00       0.00          0          0          0          0          0          0          0          0          0          0          0
  rapidlearning    :       0.00       0.00          0          0          0          0          0          0          0          0          0          0          0
  rlt              :       0.00       0.00         10         10          0          0          0          0          0          0          0          0          0
  zerohalf         :      98.83       0.00       8949         20          0          0      45665    1589182          0     148565     148565          0          0
Cutselectors       :   ExecTime  SetupTime      Calls  RootCalls   Selected     Forced   Filtered  RootSelec   RootForc   RootFilt 
  hybrid           :       1.74       0.00      17137        158     161427          0    1442975        340          0         18
Pricers            :   ExecTime  SetupTime      Calls       Vars
  problem variables:       0.00          -          0          0
Branching Rules    :   ExecTime  SetupTime   BranchLP  BranchExt   BranchPS    Cutoffs    DomReds       Cuts      Conss   Children
  allfullstrong    :       0.00       0.00          0          0          0          0          0          0          0          0
  cloud            :       0.00       0.00          0          0          0          0          0          0          0          0
  distribution     :       0.00       0.00          0          0          0          0          0          0          0          0
  fullstrong       :       0.00       0.00          0          0          0          0          0          0          0          0
  inference        :       0.00       0.00          0          0          0          0          0          0          0          0
  leastinf         :       0.00       0.00          0          0          0          0          0          0          0          0
  lookahead        :       0.00       0.00          0          0          0          0          0          0          0          0
  mostinf          :       0.00       0.00          0          0          0          0          0          0          0          0
  multaggr         :       0.00       0.00          0          0          0          0          0          0          0          0
  nodereopt        :       0.00       0.00          0          0          0          0          0          0          0          0
  pscost           :       0.00       0.00          0          0          0          0          0          0          0          0
  random           :       0.00       0.00          0          0          0          0          0          0          0          0
  relpscost        :      53.05       0.00      57477          0          0          0        566          0        419     114284
  vanillafullstrong:       0.00       0.00          0          0          0          0          0          0          0          0
Primal Heuristics  :   ExecTime  SetupTime      Calls      Found       Best
  LP solutions     :       0.00          -          -          2          2
  relax solutions  :       0.00          -          -          0          0
  pseudo solutions :       0.00          -          -          0          0
  strong branching :       0.04          -          -          0          0
  actconsdiving    :       0.00       0.00          0          0          0
  adaptivediving   :       4.61       0.00         26          0          0
  alns             :      11.27       0.00         24         12         12
  bound            :       0.00       0.00          0          0          0
  clique           :       0.02       0.00          1          0          0
  coefdiving       :       0.00       0.00          0          0          0
  completesol      :       0.00       0.00          0          0          0
  conflictdiving   :      54.43       0.00        349          0          0
  crossover        :       0.10       0.00          2          0          0
  dins             :       0.00       0.00          0          0          0
  distributiondivin:      66.65       0.00        256          0          0
  dps              :       0.00       0.00          0          0          0
  dualval          :       0.00       0.00          0          0          0
  farkasdiving     :       0.00       0.00          0          0          0
  feaspump         :       0.25       0.00          1          1          1
  fixandinfer      :       0.00       0.00          0          0          0
  fracdiving       :      44.57       0.00        256          0          0
  gins             :       0.13       0.00          0          0          0
  guideddiving     :      44.25       0.00        256          1          1
  indicator        :       0.02       0.00          0          0          0
  indicatordiving  :       0.00       0.00          0          0          0
  intdiving        :       0.00       0.00          0          0          0
  intshifting      :       0.19       0.00         25          0          0
  linesearchdiving :      40.54       0.00        256          0          0
  localbranching   :       0.00       0.00          0          0          0
  locks            :       0.01       0.00          1          0          0
  lpface           :       0.17       0.00          0          0          0
  mpec             :      90.94       0.00         11          2          2
  multistart       :       0.00       0.00          0          0          0
  mutation         :       0.00       0.00          0          0          0
  nlpdiving        :      16.64       0.00          2          0          0
  objpscostdiving  :      82.54       0.00         66         25          0
  octane           :       0.00       0.00          0          0          0
  ofins            :       0.12       0.00          0          0          0
  oneopt           :       0.10       0.00         20          0          0
  padm             :       0.00       0.00          0          0          0
  proximity        :       0.00       0.00          0          0          0
  pscostdiving     :      48.58       0.00        256          2          2
  randrounding     :       1.24       0.00       6119          0          0
  rens             :       0.00       0.00          0          0          0
  reoptsols        :       0.00       0.00          0          0          0
  repair           :       0.00       0.00          0          0          0
  rins             :       2.05       0.00         15          0          0
  rootsoldiving    :      60.71       0.00         38          5          0
  rounding         :       1.27       0.00       3709          0          0
  shiftandpropagate:       0.00       0.00          0          0          0
  shifting         :      57.93       0.00      10988          7          6
  simplerounding   :       0.10       0.00          0          0          0
  subnlp           :     118.38       0.00          0          0          0
  trivial          :       0.01       0.00          2          2          2
  trivialnegation  :       0.00       0.00          0          0          0
  trustregion      :       0.00       0.00          0          0          0
  trysol           :       0.10       0.00          0          0          0
  twoopt           :       0.00       0.00          0          0          0
  undercover       :       1.93       0.00          1          1          1
  vbounds          :       0.00       0.00          0          0          0
  veclendiving     :      39.69       0.00        257          0          0
  zeroobj          :       0.00       0.00          0          0          0
  zirounding       :       0.48       0.00       1000          0          0
  other solutions  :          -          -          -          0          -
Diving (single)    :      Calls      Nodes   LP Iters Backtracks  Conflicts   MinDepth   MaxDepth   AvgDepth  RoundSols  NLeafSols  MinSolDpt  MaxSolDpt  AvgSolDpt
  actconsdiving    :          0          -          -          -          -          -          -          -          -          -          -          -          -
  coefdiving       :          0          -          -          -          -          -          -          -          -          -          -          -          -
  conflictdiving   :        349      14813     402224        346      25705         52         81       60.4          0          -          -          -          -
  distributiondivin:        256       9538     403874        283       8578         47         65       54.9          0          -          -          -          -
  farkasdiving     :          0          -          -          -          -          -          -          -          -          -          -          -          -
  fracdiving       :        256      38995     330493         96       1398         59        555      170.6          0          -          -          -          -
  guideddiving     :        256      32382     334465         62       1277         61        308      144.9          0          1        129        129      129.0
  indicatordiving  :          0          -          -          -          -          -          -          -          -          -          -          -          -
  linesearchdiving :        256      10787     318500        270      16929         47         93       59.8          0          -          -          -          -
  pscostdiving     :        256      12071     391314        271      10734         57         80       64.8          0          2         71         80       75.5
  veclendiving     :        257      11043     287960        251      20077         52         85       60.5          0          -          -          -          -
Diving (adaptive)  :      Calls      Nodes   LP Iters Backtracks  Conflicts   MinDepth   MaxDepth   AvgDepth  RoundSols  NLeafSols  MinSolDpt  MaxSolDpt  AvgSolDpt
  actconsdiving    :          4        155       6435          4         85         52         56       54.0          0          -          -          -          -
  coefdiving       :          7        287       8337          6        493         53         62       57.7          0          -          -          -          -
  conflictdiving   :          0          -          -          -          -          -          -          -          -          -          -          -          -
  distributiondivin:          0          -          -          -          -          -          -          -          -          -          -          -          -
  farkasdiving     :          0          -          -          -          -          -          -          -          -          -          -          -          -
  fracdiving       :          3        495       4097          0          0        103        297      181.7          0          -          -          -          -
  guideddiving     :          1         87       1263          1         49        107        107      107.0          0          -          -          -          -
  indicatordiving  :          0          -          -          -          -          -          -          -          -          -          -          -          -
  linesearchdiving :          4        171       4742          5        299         55         69       60.2          0          -          -          -          -
  pscostdiving     :          3        142       4776          3        115         60         70       64.3          0          -          -          -          -
  veclendiving     :          4        157       3672          4        257         56         75       63.0          0          -          -          -          -
Neighborhoods      :      Calls  SetupTime  SolveTime SolveNodes       Sols       Best       Exp3  EpsGreedy        UCB TgtFixRate  Opt  Inf Node Stal  Sol  Usr Othr Actv
  rens             :          1       0.00       0.00          0          0          0    0.00000   -1.00000    0.07176      0.900    0    0    0    0    0    0    1    1
  rins             :          3       0.14       0.09         77          1          1    0.00000   -1.00000    0.45705      0.812    1    0    0    1    0    0    1    1
  mutation         :          4       0.28       0.74        494          2          2    0.00000   -1.00000    0.45550      0.747    1    1    0    2    0    0    0    1
  localbranching   :          2       0.15       0.11        116          0          0    0.00000   -1.00000    0.45103      0.850    0    1    0    1    0    0    0    1
  crossover        :          9       0.70       8.26       2212          9          9    0.00000   -1.00000    0.44025      0.546    0    1    0    5    3    0    0    1
  proximity        :          2       0.14       0.24        108          0          0    0.00000   -1.00000    0.45411      0.850    0    1    0    1    0    0    0    1
  zeroobjective    :          2       0.13       0.09        139          0          0    0.00000   -1.00000    0.41028      0.850    0    1    0    1    0    0    0    1
  dins             :          1       0.00       0.00          0          0          0    0.00000   -1.00000    0.07176      0.900    0    0    0    0    0    0    1    1
  trustregion      :          0       0.00       0.00          0          0          0    0.00000   -1.00000    1.00000      0.900    0    0    0    0    0    0    0    0
Expressions        :   #IntEval  IntEvalTi   #RevProp  RevPropTi    DomReds    Cutoffs  #Estimate  EstimTime  Branching  #Simplify SimplifyTi Simplified
  pow              :          0       0.00          0       0.00          0          0          0       0.00          0          0       0.00          0
  prod             :       9900       0.01          0       0.00          0          0          0       0.00          0       6751       0.00          0
  sum              :          8       0.00          2       0.00          0          0          0       0.00          0          3       0.00          2
  var              :       6554       0.00          0       0.00          0          0          0       0.00          0      15619       0.01          0
  varidx           :          0       0.00          0       0.00          0          0          0       0.00          0          0       0.00          0
LP                 :       Time      Calls Iterations  Iter/call   Iter/sec  Time-0-It Calls-0-It    ItLimit
  primal LP        :     130.73       9984          0       0.00       0.00     130.67       9984
  dual LP          :    1926.82     121166    8490354      76.27    4406.41       5.14       9852
  lex dual LP      :       0.00          0          0       0.00          -
  barrier LP       :       0.00          0          0       0.00          -       0.00          0
  resolve instable :       0.00          0          0       0.00          -
  diving/probing LP:     422.85      12465    3107498     249.30    7348.94
  strong branching :      31.16       1630     209703     128.65    6729.88          -          -        364
    (at root node) :          -         20       5657     282.85          -
  conflict analysis:       6.32       3608      35556       9.85    5625.95
NLP relaxation     :
  solve time       :      16.37 (6 calls)
  convexity        :  nonconvex (40 linear rows, 0 convex ineq., 0 nonconvex ineq., 1801 nonlinear eq. or two-sided ineq.)
NLP Solvers        :  #Problems  ProblemTi    #Solves  SolveTime      #Iter  Time/Iter      #Okay #TimeLimit #IterLimit #LObjLimit #Interrupt  #NumError #EvalError  #OutOfMem #LicenseEr #OtherTerm   #GlobOpt    #LocOpt  #Feasible #LocInfeas #GlobInfea #Unbounded   #Unknown
  ipopt            :         12       5.30         39     110.25       1504       0.07         39          0          0          0          0          0          0          0          0          0          0         22          0         16          0          0          1
B&B Tree           :
  number of runs   :          1
  nodes            :      93870 (57142 internal, 36728 leaves)
  feasible leaves  :          2
  infeas. leaves   :          5
  objective leaves :      36720
  nodes (total)    :      93870 (57142 internal, 36728 leaves)
  nodes left       :      20334
  max depth        :         60
  max depth (total):         60
  backtracks       :      22094 (23.5%)
  early backtracks :          0 (0.0%)
  nodes exc. ref.  :          0 (0.0%)
  delayed cutoffs  :          1
  repropagations   :         46 (151 domain reductions, 0 cutoffs)
  avg switch length:       6.33
  switching time   :     156.65
Estim. Tree Size   :     187902
Estimation Tree    : 114285 nodes (93951 visited, 57142 internal, 36809 leaves, 20334 open), weight: 0.0000 completed 0.1047
Estimations        :      estim      value      trend resolution     smooth
  wbe              : 35473426692832          -          -          -          -
  tree-profile     :         -1          -          -          -          -
  gap              :    2993285    0.68614    0.00001         64    3130540
  tree-weight      :     187902    0.00000    0.00000         64     187763
  leaf-frequency   :    2796763    0.39178    0.00001         64    3122224
  ssg              :    5059413    0.83463   -0.00002         64    5072216
  open-nodes       :     187902 20334.00000   19.34951         64     187763
Root Node          :
  First LP value   : -5.45898989898991e+00
  First LP Iters   :       1707 (9483.33 Iter/sec)
  First LP Time    :       0.18
  Final Dual Bound : -5.17737449343951e+00
  Final Root Iters :       3913
  Root LP Estimate : -1.46246936649809e+00
Solution           :
  Solutions found  :         60 (29 improvements)
  First Solution   : +1.00000000000000e+05   (in run 1, after 0 nodes, 0.04 seconds, depth 0, found by <trivial>)
  Gap First Sol.   :   infinite
  Gap Last Sol.    :      48.28 %
  Primal Bound     : -3.11717171717172e+00   (in run 1, after 42762 nodes, 1226.61 seconds, depth 40, found by <alns>)
  Dual Bound       : -4.54303756680087e+00
  Gap              :      45.74 %
Integrals          :      Total       Avg%
  primal-dual      :  120559.24      33.49
  primal-ref       :          -          - (not evaluated)
  dual-ref         :          -          - (not evaluated)
